178
vancomycin pH=2.6 charge=+2 formula=C66H77Cl2N9O24
N       4.20600000      5.42800000     -4.10100000
C       3.89400000      4.07900000     -4.70500000
C       5.45400000      5.45400000     -3.28100000
C       6.63700000      5.02400000     -4.16600000
O       6.83000000      5.60100000     -5.19900000
C       5.70700000      6.85100000     -2.75400000
C       4.64800000      7.46000000     -1.85700000
C       4.33400000      6.63200000     -0.62100000
C       5.06800000      8.88000000     -1.49200000
N       7.40100000      4.02200000     -3.70900000
C       8.46200000      3.51100000     -4.53400000
C       9.77700000      4.29400000     -4.39900000
O      10.74900000      3.98200000     -5.11100000
C       8.76200000      1.98900000     -4.29100000
O       7.55500000      1.24600000     -4.42000000
C       9.43100000      1.71500000     -2.99600000
C      10.79500000      1.48200000     -2.95700000
C       8.71600000      1.71700000     -1.78800000
C      11.45700000      1.29300000     -1.77000000
Cl     13.10300000      0.91900000     -1.73900000
C       9.40600000      1.57200000     -0.57900000
C      10.76800000      1.39300000     -0.57500000
O      11.41800000      1.33300000      0.64300000
N       9.83800000      5.26000000     -3.52300000
C      10.94300000      6.22900000     -3.50900000
C      11.96100000      5.92200000     -2.42000000
O      13.09500000      5.55500000     -2.75500000
C      10.40800000      7.65300000     -3.53100000
C       9.33000000      7.98300000     -2.56100000
O       9.03900000      7.23900000     -1.60800000
N       8.72600000      9.13600000     -2.76400000
N      11.60100000      6.10300000     -1.15600000
C      12.56800000      6.11300000     -0.07000000
C      12.39600000      7.37500000      0.76300000
O      11.28700000      7.79600000      1.05500000
C      12.54700000      4.84500000      0.82000000
C      13.08700000      4.83200000      2.05600000
C      13.05400000      3.67800000      2.84100000
C      12.51900000      2.51400000      2.35400000
O      12.41100000      1.36000000      3.12300000
C      11.97400000      2.53700000      1.06800000
C      11.98200000      3.68400000      0.32300000
N      13.53500000      7.93400000      1.15100000
C      13.55500000      8.86800000      2.24200000
C      14.97400000      8.77800000      2.90100000
O      15.90900000      8.38300000      2.20600000
C      13.38200000     10.34700000      1.96300000
C      12.37100000     11.03200000      2.60400000
C      12.32400000     12.43300000      2.64000000
C      13.27300000     13.12800000      1.92500000
O      13.29300000     14.50400000      1.99300000
C      14.20700000     12.44700000      1.18700000
C      14.28600000     11.08000000      1.20600000
N      15.14700000      9.17400000      4.15100000
C      14.12400000      9.61800000      5.11000000
O      13.51900000      3.63900000      4.15700000
C      14.97800000      5.26800000      5.13700000
C      12.59900000      5.64600000      5.15300000
C      13.68000000      4.84000000      4.83200000
C      14.08600000      7.34100000      6.00400000
C      15.14700000      6.48600000      5.75600000
C      12.79200000      6.87500000      5.75200000
C      14.24700000      8.78500000      6.40100000
Cl     10.96800000      5.12500000      4.83100000
O      15.30500000     11.71000000      5.15400000
C      14.22400000     11.12800000      5.27500000
O      15.52000000      9.01000000      6.98700000
N      13.08500000     11.74100000      5.52700000
O       9.60900000     12.93400000      1.75100000
C       9.97700000     13.33500000      3.00100000
C      11.28600000     13.11000000      3.47800000
C       9.03100000     13.94000000      3.76900000
C       9.34700000     14.34200000      5.06600000
O       8.44500000     14.95200000      5.89600000
C      10.63300000     14.13500000      5.58900000
C      11.57700000     13.49800000      4.79300000
C      12.96300000     13.19200000      5.38200000
C      13.26400000     13.99300000      6.64500000
O      13.28000000     13.39800000      7.73400000
O      13.48600000     15.20400000      6.51400000
C      13.26900000     -0.34300000      4.51400000
C      14.50600000     -1.16700000      4.82900000
C      15.03800000     -1.76600000      3.53000000
C      15.28300000     -0.63300000      2.53100000
C      15.76400000     -1.14000000      1.20100000
C      13.59000000      0.70500000      3.44400000
O      12.82300000      0.27300000      5.70700000
O      14.19800000     -2.22300000      5.74900000
O      16.24500000     -2.44900000      3.87300000
O      14.06300000      0.07200000      2.28400000
O      14.95100000     -2.15300000      0.64800000
C      11.61100000     -0.26900000      6.25100000
C      11.51400000      0.25400000      7.67400000
C      11.03300000      1.70900000      7.72100000
N      10.55600000      1.94200000      9.16100000
C      12.09100000      2.69800000      7.46000000
C       9.84600000      1.88600000      6.79400000
O       8.66700000      1.20600000      7.29100000
C      10.22500000      1.45300000      5.38800000
O      10.54800000      0.06100000      5.41100000
C       9.17400000      1.71500000      4.31400000
H       3.42500000      5.70000000     -3.50400000
H       4.35100000      6.07200000     -4.87800000
H       3.73400000      3.36700000     -3.92300000
H       4.71500000      3.76200000     -5.31300000
H       3.01200000      4.15300000     -5.30700000
H       5.34700000      4.78600000     -2.45200000
H       5.82200000      7.49700000     -3.59900000
H       6.57200000      6.75600000     -2.13100000
H       3.73100000      7.47800000     -2.40700000
H       5.20800000      6.56200000     -0.00700000
H       4.02700000      5.65100000     -0.91800000
H       3.54700000      7.10000000     -0.06800000
H       5.98600000      8.85000000     -0.94300000
H       4.30700000      9.33400000     -0.89200000
H       5.20600000      9.45200000     -2.38600000
H       7.23700000      3.63900000     -2.81700000
H       8.08600000      3.63800000     -5.52800000
H       9.46200000      1.67700000     -5.03800000
H       6.92500000      1.53300000     -3.74100000
H      11.32600000      1.45000000     -3.84100000
H       7.69000000      1.82500000     -1.79100000
H       8.88900000      1.60000000      0.31400000
H       9.12200000      5.34200000     -2.85200000
H      11.51000000      6.13100000     -4.41100000
H      10.02700000      7.84000000     -4.51300000
H      11.23700000      8.26600000     -3.24500000
H       8.98400000      9.69800000     -3.53000000
H       8.01700000      9.43500000     -2.15000000
H      10.64800000      6.23500000     -0.94600000
H      13.53500000      6.10800000     -0.52800000
H      13.53100000      5.68700000      2.42600000
H      11.56200000      3.68300000     -0.62000000
H      14.37300000      7.70700000      0.68700000
H      12.70200000      8.57300000      2.81600000
H      11.62400000     10.49600000      3.07300000
H      12.64900000     14.95700000      2.50100000
H      14.86900000     12.98000000      0.60100000
H      15.01500000     10.59600000      0.65900000
H      16.07500000      9.17100000      4.48000000
H      13.12800000      9.44100000      4.76200000
H      15.79300000      4.68100000      4.90200000
H      16.09600000      6.77100000      6.04500000
H      11.97800000      7.45200000      6.01500000
H      13.50400000      9.05700000      7.12100000
H      16.21400000      8.77100000      6.35300000
H      12.30500000     11.21500000      5.81700000
H      10.23200000     12.51400000      1.19200000
H       8.08300000     14.10100000      3.39300000
H       7.57100000     15.11500000      5.59900000
H      10.87200000     14.44900000      6.54300000
H      13.72900000     13.52200000      4.71200000
H      13.45900000     15.59600000      5.66300000
H      12.49500000     -0.97400000      4.12900000
H      15.24100000     -0.53300000      5.27900000
H      14.35300000     -2.44900000      3.07300000
H      16.02900000     -0.00300000      2.96700000
H      16.75200000     -1.53200000      1.32700000
H      15.73400000     -0.31200000      0.52300000
H      14.33100000      1.38400000      3.81200000
H      13.53200000     -2.80900000      5.35700000
H      16.86300000     -1.82600000      4.28700000
H      14.95200000     -2.92500000      1.23600000
H      11.59000000     -1.33800000      6.30100000
H      12.48000000      0.19500000      8.13000000
H      10.80000000     -0.34700000      8.19800000
H      11.34100000      1.82700000      9.80200000
H       9.82800000      1.26600000      9.39100000
H      10.18200000      2.88700000      9.24700000
H      12.90500000      2.53600000      8.13500000
H      11.70100000      3.68400000      7.60300000
H      12.43600000      2.59400000      6.45300000
H       9.58600000      2.92300000      6.76000000
H       8.84200000      0.25300000      7.34500000
H      11.06100000      2.06000000      5.10900000
H       8.29800000      1.13800000      4.52400000
H       9.56400000      1.43600000      3.35800000
H       8.92300000      2.75500000      4.30700000
