178
14969
Cl         0.93108        1.22973        0.45732
Cl        -2.73242       -2.41201       -5.50388
O         -1.29749        8.31518       -6.59857
O         -2.59832        6.59302       -7.45058
O         -2.10291        5.18339       -4.87526
O         -1.62348       11.05595       -5.85924
O         -3.15851        2.97478       -7.79906
O         -0.86026        3.05689       -5.23417
O         -4.99464        5.83458       -6.59045
O         -3.11331        3.73688       -2.86850
O          1.73439        2.85190       -2.41041
O         -2.05295        0.64109       -5.03661
O          4.35942       -0.01564       -3.85310
O          2.37663       -5.11708       -2.57396
O          6.44987       -0.99873       -1.74174
O          2.65826       -0.29490       -6.02137
O          5.84073       -4.01093       -6.81862
O          7.37968       -4.24325       -0.73426
O          0.78728       -4.51187       -7.52438
O          7.67138       -3.81835        2.27153
O          4.15744        0.10093      -12.10473
O          1.45577       -2.56403        1.52868
O          5.48551       -2.84471      -13.17830
O          1.25278       -0.87758      -11.88080
O          1.08795        0.12743       -9.91149
O          3.05706       -6.63219      -11.67304
N         -3.34093       11.69521       -7.68514
N          2.18668       -2.98608       -2.88451
N          4.17662       -1.86317       -5.13713
N          5.21841       -4.12698       -1.12296
N          3.68148       -3.45794       -7.26126
N          5.84833       -2.50494        1.71752
N          1.00327       -2.89353       -9.06165
N          4.92283       -4.04275        4.28261
N          1.12398       -4.55239        0.53618
C         -3.48386       10.26011       -7.21708
C         -2.75041       10.14942       -5.85371
C         -2.85941        9.20445       -8.26064
C         -1.97182        7.87107       -7.75788
C         -2.24894        8.71994       -5.59534
C         -1.95496        5.13030       -7.33904
C         -3.29653        4.36784       -7.55832
C         -5.02718       10.14610       -7.10129
C         -4.21292        4.63887       -6.35677
C         -1.19376        4.55172       -5.77937
C         -3.48468        4.75006       -4.98314
C         -1.50283        8.59468       -4.28679
C         -3.65890        3.48541       -4.16203
C         -0.21953        2.16391       -4.25403
C          0.85966        2.02703       -3.25927
C         -0.84162        0.81610       -4.29477
C          1.16436        0.69268       -2.75477
C         -0.24227       -0.50311       -3.73070
C          1.07253       -0.54212       -3.32968
C          2.36417       -1.50808       -3.07162
C          3.76736       -1.06402       -4.04757
C          2.71373        2.14732       -1.48545
C         -1.77684        0.02102       -6.29798
C          2.72229       -4.00881       -2.12424
C          5.19669       -1.67752       -6.45155
C          3.73386       -4.08598       -0.86201
C          2.43615        1.22034       -0.42134
C          4.09090        2.21912       -1.75706
C         -1.57199       -1.35045       -6.19579
C         -0.95656        0.82294       -7.09052
C          5.50341       -1.22120       -0.66615
C          6.29249       -2.25647        0.30973
C          4.69598        0.12426       -0.48164
C          2.13489       -1.19952       -6.98600
C          0.69526       -0.88254       -6.84078
C          2.39618       -2.77950       -6.94713
C          3.37532        0.18034        0.00209
C          5.04558        1.26902       -1.21647
C         -0.26691       -1.77177       -6.33234
C          0.34323        0.41411       -7.21842
C          5.04726       -0.98847       -8.00451
C          4.96049       -3.16035       -6.80613
C          3.36197       -3.56181        0.52256
C          6.31750       -3.64820       -0.52685
C          6.18620       -3.28927        4.14836
C          1.33802       -3.45738       -7.86032
C          6.06897       -1.87909        4.77271
C          5.15048       -1.85546       -9.16930
C          6.64727       -3.21265        2.61575
C          5.50406       -1.72367        6.21302
C          4.86434        0.35258       -8.39127
C          4.72021       -1.53559      -10.51788
C          1.95692       -2.18999       -9.89489
C          4.02715       -2.64078      -11.27735
C          2.80367       -3.12217      -10.73619
C          1.90840       -3.47476        0.87843
C          4.53060       -0.20032      -10.82433
C          4.63843        0.73528       -9.79157
C          6.35357       -2.37433        7.30625
C          5.37096       -0.22203        6.52537
C          4.58553       -3.38631      -12.31031
C          2.49529       -4.48359      -10.84350
C          1.39930       -0.89126      -10.54638
C          5.06124       -5.46038        3.98073
C          3.25275       -5.28592      -11.66749
C          4.20810       -4.71970      -12.50140
H         -1.93622       11.95959       -6.02211
H         -2.57576        2.83463       -8.56172
H         -5.44686        5.76324       -7.44562
H         -3.20960        2.94451       -2.31734
H          6.96861       -1.80523       -1.88793
H          2.37639        0.60759       -6.23806
H          4.10553       -0.57705      -12.74941
H          5.75757       -1.95394      -13.07588
H          1.48047       -1.63389      -12.38490
H          2.41250       -7.01425      -11.11042
H         -2.35265       11.91631       -7.80683
H         -3.74636       12.32163       -6.98971
H         -3.82764       11.81309       -8.57375
H          1.48025       -3.32865       -3.47852
H          3.75654       -2.75337       -5.11951
H          5.43423       -4.63452       -1.93848
H          3.61765       -4.22374       -7.87666
H          4.97489       -2.16202        2.01543
H          0.07258       -2.96946       -9.37356
H          4.58962       -3.94732        5.24191
H          4.26611       -3.65319        3.60632
H          0.16222       -4.54771        0.74651
H          1.52455       -5.32802        0.08101
H         -3.44004       10.40228       -5.07565
H         -2.21601        9.76613       -8.90519
H         -3.73689        8.74784       -8.66860
H         -1.40318        7.59848       -8.62231
H         -3.13200        8.11570       -5.59665
H         -1.10696        5.02239       -7.98258
H         -3.72898        4.74518       -8.46136
H         -5.38633       10.86770       -6.39757
H         -5.28826        9.16312       -6.76889
H         -5.47107       10.32887       -8.05756
H         -4.84060        3.77558       -6.28155
H         -0.15193        4.75010       -5.92123
H         -4.00630        5.60554       -4.60767
H         -0.62693        9.20859       -4.31546
H         -1.21848        7.57444       -4.13460
H         -2.13490        8.91233       -3.48400
H         -4.69788        3.24325       -4.07975
H         -3.16042        2.66127       -4.62809
H          1.51394        0.67971       -1.78387
H         -0.83025       -1.34805       -3.65738
H          2.56379       -1.26001       -2.05009
H          5.99594       -1.04941       -6.11753
H          3.41049       -5.09808       -0.73555
H          4.43704        2.97771       -2.36514
H         -1.30903        1.67514       -7.55370
H          4.58169       -1.76337       -0.62905
H          7.22864       -1.78419        0.52295
H          2.64535       -1.04172       -7.91306
H          2.37023       -2.90039       -5.88430
H          3.05923       -0.53412        0.67638
H          6.04845        1.44645       -1.38316
H          0.00132       -2.73142       -6.06371
H          1.05725        1.05935       -7.59108
H          3.82682       -4.20442        1.24079
H          3.69652       -2.54546        0.52071
H          6.94209       -3.81738        4.69114
H          7.05262       -1.45800        4.77715
H          5.33641       -1.39411        4.16192
H          5.56983       -2.78683       -9.02195
H          4.56294       -2.23269        6.22294
H          4.88969        1.08940       -7.66914
H          2.69528       -1.75965       -9.25105
H          4.55582        1.73771      -10.02254
H          7.31269       -1.90132        7.34155
H          6.47686       -3.41501        7.09015
H          5.86536       -2.26178        8.25170
H          6.33850        0.23427        6.50193
H          4.94091       -0.09660        7.49708
H          4.74096        0.23989        5.79419
H          1.70719       -4.88240      -10.30976
H          5.74536       -5.90704        4.67165
H          5.43282       -5.57824        2.98427
H          4.10725       -5.93768        4.06442
H          4.63626       -5.27828      -13.25618
